(set-logic QF_UF)
(declare-fun A0 () Bool)
(declare-fun A1 () Bool)
(declare-fun A2 () Bool)
(declare-fun A3 () Bool)
(declare-fun A4 () Bool)
(declare-fun A5 () Bool)
(declare-fun A6 () Bool)
(declare-fun A7 () Bool)
(declare-fun A8 () Bool)
(declare-fun A9 () Bool)
(declare-fun A10 () Bool)
(declare-fun A12 () Bool)
(declare-fun A13 () Bool)
(declare-fun A14 () Bool)
(declare-fun A15 () Bool)
(declare-fun A16 () Bool)
(declare-fun A17 () Bool)
(declare-fun A18 () Bool)
(declare-fun A19 () Bool)
(declare-fun A20 () Bool)
(declare-fun A21 () Bool)
(declare-fun A22 () Bool)
(declare-fun A23 () Bool)
(declare-fun A24 () Bool)
(assert (let ((.def_0 (not A23))) (let ((.def_1 (and .def_0 A3))) (let ((.def_2 (not .def_1))) (let ((.def_3 (and A13 A16))) (let ((.def_4 (or .def_3 .def_2))) (let ((.def_5 (not A3))) (let ((.def_6 (or .def_5 A1))) (let ((.def_7 (not A6))) (let ((.def_8 (or .def_7 A22))) (let ((.def_9 (and .def_8 .def_6))) (let ((.def_10 (or .def_9 .def_4))) (let ((.def_11 (= A4 A12))) (let ((.def_12 (not A19))) (let ((.def_13 (or .def_12 A14))) (let ((.def_14 (and .def_13 .def_11))) (let ((.def_15 (and A1 .def_0))) (let ((.def_16 (not A5))) (let ((.def_17 (not A15))) (let ((.def_18 (and .def_17 .def_16))) (let ((.def_19 (not .def_18))) (let ((.def_20 (or .def_19 .def_15))) (let ((.def_21 (not .def_20))) (let ((.def_22 (and .def_21 .def_14))) (let ((.def_23 (or .def_22 .def_10))) (let ((.def_24 (= .def_0 A23))) (let ((.def_25 (and A13 A24))) (let ((.def_26 (not .def_25))) (let ((.def_27 (and .def_26 .def_24))) (let ((.def_28 (or .def_16 A21))) (let ((.def_29 (not .def_28))) (let ((.def_30 (not A12))) (let ((.def_31 (or .def_30 .def_30))) (let ((.def_32 (and .def_31 .def_29))) (let ((.def_33 (or .def_32 .def_27))) (let ((.def_34 (not .def_33))) (let ((.def_35 (and A20 A3))) (let ((.def_36 (not .def_35))) (let ((.def_37 (not A0))) (let ((.def_38 (and .def_37 A23))) (let ((.def_39 (not .def_38))) (let ((.def_40 (or .def_39 .def_36))) (let ((.def_41 (not A17))) (let ((.def_42 (and .def_41 A16))) (let ((.def_43 (not .def_42))) (let ((.def_44 (not A21))) (let ((.def_45 (= .def_44 A8))) (let ((.def_46 (not .def_45))) (let ((.def_47 (and .def_46 .def_43))) (let ((.def_48 (not .def_47))) (let ((.def_49 (or .def_48 .def_40))) (let ((.def_50 (= .def_49 .def_34))) (let ((.def_51 (or .def_50 .def_23))) (let ((.def_52 (or A17 A4))) (let ((.def_53 (not A20))) (let ((.def_54 (or .def_53 A19))) (let ((.def_55 (not .def_54))) (let ((.def_56 (and .def_55 .def_52))) (let ((.def_57 (not .def_56))) (let ((.def_58 (or A24 A18))) (let ((.def_59 (not .def_58))) (let ((.def_60 (and A21 A22))) (let ((.def_61 (not .def_60))) (let ((.def_62 (= .def_61 .def_59))) (let ((.def_63 (= .def_62 .def_57))) (let ((.def_64 (not A22))) (let ((.def_65 (and .def_64 A17))) (let ((.def_66 (not .def_65))) (let ((.def_67 (not A10))) (let ((.def_68 (and .def_67 A6))) (let ((.def_69 (not .def_68))) (let ((.def_70 (or .def_69 .def_66))) (let ((.def_71 (and A9 .def_41))) (let ((.def_72 (not .def_71))) (let ((.def_73 (= A21 A12))) (let ((.def_74 (or .def_73 .def_72))) (let ((.def_75 (or .def_74 .def_70))) (let ((.def_76 (not .def_75))) (let ((.def_77 (and .def_76 .def_63))) (let ((.def_78 (not .def_77))) (let ((.def_79 (not A16))) (let ((.def_80 (and A4 .def_79))) (let ((.def_81 (or .def_7 A17))) (let ((.def_82 (not .def_81))) (let ((.def_83 (or .def_82 .def_80))) (let ((.def_84 (or A0 A17))) (let ((.def_85 (not .def_84))) (let ((.def_86 (and .def_79 A16))) (let ((.def_87 (not .def_86))) (let ((.def_88 (and .def_87 .def_85))) (let ((.def_89 (not .def_88))) (let ((.def_90 (and .def_89 .def_83))) (let ((.def_91 (and A22 A18))) (let ((.def_92 (not A4))) (let ((.def_93 (and A5 .def_92))) (let ((.def_94 (or .def_93 .def_91))) (let ((.def_95 (not .def_94))) (let ((.def_96 (and A6 A4))) (let ((.def_97 (and A7 A2))) (let ((.def_98 (or .def_97 .def_96))) (let ((.def_99 (not .def_98))) (let ((.def_100 (= .def_99 .def_95))) (let ((.def_101 (not .def_100))) (let ((.def_102 (and .def_101 .def_90))) (let ((.def_103 (not .def_102))) (let ((.def_104 (or .def_103 .def_78))) (let ((.def_105 (or .def_104 .def_51))) (let ((.def_106 (not .def_105))) .def_106))))))))))))))))))))))))))))))))))))))))))))))))))))))))))))))))))))))))))))))))))))))))))))))))))))))))))))
(check-sat)
